n_machines = 10;
n_resources = 17;
n_jobs = 141;
horizon = 706;
LB = 98;
n_jobs_per_resource = [13, 7, 7, 19, 10, 17, 10, 12, 5, 1, 5, 4, 9, 10, 6, 1, 5];
duration = [6, 1, 1, 5, 2, 6, 8, 9, 1, 1, 7, 1, 8, 3, 9, 4, 8, 8, 5, 7, 6, 2, 4, 8, 9, 8, 3, 4, 3, 8, 9, 2, 9, 7, 6, 5, 2, 8, 2, 5, 6, 3, 6, 3, 4, 6, 1, 4, 2, 6, 3, 1, 2, 5, 2, 3, 1, 2, 6, 2, 8, 4, 9, 7, 4, 5, 2, 8, 3, 5, 3, 9, 8, 4, 4, 8, 7, 5, 8, 1, 2, 6, 7, 7, 3, 7, 8, 6, 2, 9, 1, 6, 4, 6, 8, 9, 3, 4, 5, 3, 9, 2, 7, 9, 9, 7, 5, 7, 8, 1, 1, 4, 2, 6, 9, 6, 6, 4, 8, 1, 4, 3, 7, 4, 1, 4, 4, 2, 2, 8, 9, 5, 6, 6, 7, 1, 8, 3, 5, 5, 5]